(set-info :smt-lib-version 2.6)
(set-logic QF_NIA)
(set-info :source |AProve team, see http://aprove.informatik.rwth-aachen.de/, submitted for SMT-COMP 2014|)
(set-info :category "industrial")
(set-info :status unsat)
(declare-fun b__51 () Int)
(declare-fun a__2 () Int)
(declare-fun a__34 () Int)
(declare-fun a__9 () Int)
(declare-fun a__23 () Int)
(declare-fun a__8 () Int)
(declare-fun a__12 () Int)
(declare-fun a__15 () Int)
(declare-fun a__10 () Int)
(declare-fun a__13 () Int)
(declare-fun b__52 () Int)
(declare-fun b__53 () Int)
(declare-fun b__54 () Int)
(declare-fun b__55 () Int)
(declare-fun a__26 () Int)
(declare-fun b__56 () Int)
(declare-fun a__35 () Int)
(declare-fun b__57 () Int)
(declare-fun a__39 () Int)
(declare-fun b__58 () Int)
(declare-fun a__43 () Int)
(declare-fun a__3 () Int)
(declare-fun a__18 () Int)
(declare-fun a__20 () Int)
(declare-fun a__16 () Int)
(declare-fun a__4 () Int)
(declare-fun a__5 () Int)
(declare-fun a__31 () Int)
(declare-fun a__27 () Int)
(declare-fun a__28 () Int)
(declare-fun a__29 () Int)
(declare-fun a__37 () Int)
(declare-fun a__24 () Int)
(declare-fun a__19 () Int)
(declare-fun a__21 () Int)
(declare-fun a__14 () Int)
(declare-fun a__22 () Int)
(declare-fun a__38 () Int)
(declare-fun a__33 () Int)
(declare-fun a__41 () Int)
(declare-fun a__40 () Int)
(declare-fun a__6 () Int)
(declare-fun a__11 () Int)
(declare-fun a__30 () Int)
(declare-fun a__32 () Int)
(declare-fun a__36 () Int)
(declare-fun a__42 () Int)
(declare-fun a__45 () Int)
(declare-fun a__44 () Int)
(declare-fun a__46 () Int)
(declare-fun a__47 () Int)
(declare-fun a__48 () Int)
(declare-fun a__49 () Int)
(declare-fun a__50 () Int)
(declare-fun a__1 () Int)
(declare-fun a__7 () Int)
(declare-fun a__17 () Int)
(declare-fun a__25 () Int)
(assert (and (>= (+ 1 (* (- 0 1) b__51)) 0) (= (+ (* b__51 a__2 a__34) (* (- 0 1) (* a__2 a__34))) 0) (= (+ (* b__51 a__9 a__23) (* (- 0 1) (* a__9 a__23))) 0) (= (+ (* b__51 a__8 a__12 a__15) (* (- 0 1) (* a__8 a__12 a__15))) 0) (= (+ (* b__51 a__10 a__23 a__13) (* (- 0 1) (* a__10 a__23 a__13))) 0) (>= (+ 1 (* (- 0 1) b__52)) 0) (= (+ (* b__52 a__8) (* (- 0 1) a__8)) 0) (>= (+ 1 (* (- 0 1) b__53)) 0) (= (+ (* b__53 a__8 a__12) (* (- 0 1) (* a__8 a__12))) 0) (>= (+ 1 (* (- 0 1) b__54)) 0) (= (+ (* b__54 a__8) (* (- 0 1) a__8)) 0) (= (+ (* b__54 a__10) (* (- 0 1) a__10)) 0) (>= (+ 1 (* (- 0 1) b__55)) 0) (= (+ (* b__55 a__26) (* (- 0 1) a__26)) 0) (>= (+ 1 (* (- 0 1) b__56)) 0) (= (+ (* b__56 a__2 a__35) (* (- 0 1) (* a__2 a__35))) 0) (>= (+ 1 (* (- 0 1) b__57)) 0) (= (+ (* b__57 a__2) (* (- 0 1) a__2)) 0) (= (+ (* b__57 a__8 a__12 a__39) (* (- 0 1) (* a__8 a__12 a__39))) 0) (>= (+ 1 (* (- 0 1) b__58)) 0) (= (+ (* b__58 a__2 a__35 a__43) (* (- 0 1) (* a__2 a__35 a__43))) 0) (>= (+ a__3 (* (- 0 1) (* a__18 a__15 a__12 a__8)) (* (- 0 1) (* a__20 a__16 a__12 a__8)) (* (- 0 1) (* a__18 a__23 a__13 a__10))) 0) (>= (+ a__4 (* (- 0 1) (* a__13 a__8))) 0) (>= (+ a__5 (* (- 0 1) (* a__12 a__10))) 0) (>= (+ a__8 (* (- 0 1) (* a__31 a__26)) (* (- 0 1) a__27)) 0) (>= (+ a__9 (* (- 0 1) a__28)) 0) (>= (+ a__10 (* (- 0 1) a__29)) 0) (>= (+ a__27 (* (- 0 1) (* a__18 a__34 a__2)) (* (- 0 1) (* a__37 a__35 a__2)) (* (- 0 1) a__3)) 0) (>= (+ a__28 (* (- 0 1) a__4)) 0) (>= (+ a__29 (* (- 0 1) a__5)) 0) (>= (+ a__3 (* (- 0 1) (* a__20 a__8)) (* (- 0 1) (* a__18 a__23 a__9))) 0) (>= (+ a__4 (* (- 0 1) (* a__24 a__9))) 0) (>= (+ a__5 (* (- 0 1) a__10)) 0) (>= (+ (* b__51 a__23 a__18) (* (- 0 1) b__51)) 0) (>= (+ (* b__52 a__24 a__20) (* (- 0 1) b__52)) 0) (>= (+ (* b__52 a__19) (* b__52 a__21 a__20) (* (- 0 1) (* b__52 a__21))) 0) (>= (+ (* b__53 a__14) (* b__53 a__21 a__16) (* (- 0 1) (* b__53 a__21))) 0) (>= (+ (* b__53 a__14) (* b__53 a__22 a__16) (* (- 0 1) (* b__53 a__38)) (* (- 0 1) (* b__53 a__33 a__39)) (* (- 0 1) (* b__53 a__22 a__41))) 0) (>= (+ (* b__53 a__15) (* (- 0 1) (* b__53 a__34 a__39)) (* (- 0 1) (* b__53 a__40))) 0) (>= (+ (* b__53 a__23 a__16) (* (- 0 1) (* b__53 a__35 a__39)) (* (- 0 1) (* b__53 a__23 a__41))) 0) (>= (+ (* b__53 a__24 a__16) (* (- 0 1) (* b__53 a__24 a__41))) 0) (>= (+ (* b__53 a__38) (* b__53 a__6 a__39) (* b__53 a__22 a__41) (* (- 0 1) (* b__53 a__14))) 0) (>= (+ (* b__53 a__40) (* (- 0 1) (* b__53 a__15))) 0) (>= (+ (* b__53 a__24 a__41) (* (- 0 1) (* b__53 a__16))) 0) (>= (+ (* b__54 a__13) (* (- 0 1) b__54)) 0) (>= (+ (* b__54 a__11) (* b__54 a__22 a__12) (* (- 0 1) (* b__54 a__22)) (* (- 0 1) (* b__54 a__11 a__24))) 0) (>= (+ (* b__54 a__23 a__12) (* (- 0 1) (* b__54 a__23))) 0) (>= (+ (* b__54 a__13) (* (- 0 1) (* b__54 a__13 a__24))) 0) (>= (+ (* b__55 a__30) (* b__55 a__21 a__31) (* (- 0 1) (* b__55 a__6))) 0) (>= (+ (* b__55 a__30) (* b__55 a__22 a__31) (* (- 0 1) (* b__55 a__32))) 0) (>= (+ (* b__56 a__23 a__37) (* (- 0 1) b__56)) 0) (>= (+ (* b__56 a__36) (* b__56 a__22 a__37) (* b__56 a__22 a__24 a__37) (* (- 0 1) (* b__56 a__42)) (* (- 0 1) (* b__56 a__45 a__43)) (* (- 0 1) (* b__56 a__22 a__44)) (* (- 0 1) (* b__56 a__22 a__24 a__44))) 0) (>= (+ (* b__56 a__23 a__37) (* (- 0 1) (* b__56 a__46 a__43)) (* (- 0 1) (* b__56 a__23 a__44))) 0) (>= (+ (* b__56 a__23 a__24 a__37) (* (- 0 1) (* b__56 a__47 a__43)) (* (- 0 1) (* b__56 a__23 a__24 a__44))) 0) (>= (+ (* b__56 a__24 a__24 a__37) (* (- 0 1) (* b__56 a__24 a__24 a__44))) 0) (>= (+ (* b__56 a__42) (* b__56 a__6 a__43) (* b__56 a__22 a__44) (* b__56 a__22 a__24 a__44) (* (- 0 1) (* b__56 a__36)) (* (- 0 1) (* b__56 a__22 a__37))) 0) (>= (+ (* b__56 a__23 a__44) (* (- 0 1) (* b__56 a__23 a__37))) 0) (>= (+ (* b__56 a__24 a__24 a__44) (* (- 0 1) (* b__56 a__24 a__37))) 0) (>= (+ (* b__56 a__42) (* b__56 a__32 a__43) (* b__56 a__22 a__44) (* b__56 a__22 a__24 a__44) (* (- 0 1) (* b__56 a__36)) (* (- 0 1) (* b__56 a__22 a__37))) 0) (>= (+ (* b__56 a__23 a__24 a__44) (* (- 0 1) (* b__56 a__23 a__37))) 0) (>= (+ (* b__57 a__33) (* b__57 a__48 a__34) (* b__57 a__48 a__35) (* (- 0 1) (* b__57 a__6))) 0) (>= (+ (* b__57 a__33) (* b__57 a__48 a__34) (* b__57 a__49 a__35) (* (- 0 1) (* b__57 a__32))) 0) (>= (+ (* b__57 a__33) (* b__57 a__49 a__34) (* b__57 a__48 a__35) (* (- 0 1) (* b__57 a__32))) 0) (>= (+ (* b__57 a__50 a__34) (* (- 0 1) (* b__57 a__34))) 0) (>= (+ (* b__57 a__50 a__35) (* (- 0 1) (* b__57 a__35))) 0) (>= (+ (* b__53 a__38) (* b__53 a__32 a__39) (* b__53 a__22 a__41) (* (- 0 1) (* b__53 a__22)) (* (- 0 1) (* b__53 a__14 a__24))) 0) (>= (+ (* b__53 a__40) (* (- 0 1) (* b__53 a__15 a__24))) 0) (>= (+ (* b__53 a__23 a__41) (* (- 0 1) (* b__53 a__23))) 0) (>= (+ (* b__53 a__24 a__41) (* (- 0 1) (* b__53 a__16 a__24))) 0) (>= (+ (* b__58 a__45) (* b__58 a__48 a__46) (* (- 0 1) (* b__58 a__6))) 0) (>= (+ (* b__58 a__45) (* b__58 a__49 a__46) (* b__58 a__48 a__47) (* (- 0 1) (* b__58 a__32))) 0) (>= (+ (* b__58 a__50 a__46) (* (- 0 1) (* b__58 a__46))) 0) (>= (+ (* b__58 a__50 a__47) (* (- 0 1) (* b__58 a__47))) 0) (>= (+ a__1 (* a__6 a__2) (* (- 0 1) a__7) (* (- 0 1) (* a__11 a__8)) (* (- 0 1) (* a__14 a__12 a__8)) (* (- 0 1) (* a__17 a__15 a__12 a__8)) (* (- 0 1) (* a__19 a__16 a__12 a__8)) (* (- 0 1) (* a__21 a__9)) (* (- 0 1) (* a__11 a__10)) (* (- 0 1) (* a__22 a__13 a__10)) (* (- 0 1) (* a__17 a__23 a__13 a__10)) (* (- 0 1) (* a__21 a__24 a__13 a__10))) 0) (>= (+ a__7 (* (- 0 1) a__25) (* (- 0 1) (* a__30 a__26))) 0) (>= (+ a__25 (* a__32 a__26) (* (- 0 1) a__1) (* (- 0 1) (* a__33 a__2)) (* (- 0 1) (* a__17 a__34 a__2)) (* (- 0 1) (* a__36 a__35 a__2))) 0) (>= (+ a__1 (* a__32 a__2) (* (- 0 1) a__7) (* (- 0 1) (* a__19 a__8)) (* (- 0 1) (* a__22 a__9)) (* (- 0 1) (* a__17 a__23 a__9))) 0) (not (and (= (+ a__1 (* a__6 a__2) (* (- 0 1) a__7) (* (- 0 1) (* a__11 a__8)) (* (- 0 1) (* a__14 a__12 a__8)) (* (- 0 1) (* a__17 a__15 a__12 a__8)) (* (- 0 1) (* a__19 a__16 a__12 a__8)) (* (- 0 1) (* a__21 a__9)) (* (- 0 1) (* a__11 a__10)) (* (- 0 1) (* a__22 a__13 a__10)) (* (- 0 1) (* a__17 a__23 a__13 a__10)) (* (- 0 1) (* a__21 a__24 a__13 a__10))) 0) (= (+ a__7 (* (- 0 1) a__25) (* (- 0 1) (* a__30 a__26))) 0) (= (+ a__25 (* a__32 a__26) (* (- 0 1) a__1) (* (- 0 1) (* a__33 a__2)) (* (- 0 1) (* a__17 a__34 a__2)) (* (- 0 1) (* a__36 a__35 a__2))) 0) (= (+ a__1 (* a__32 a__2) (* (- 0 1) a__7) (* (- 0 1) (* a__19 a__8)) (* (- 0 1) (* a__22 a__9)) (* (- 0 1) (* a__17 a__23 a__9))) 0))) (>= b__51 0) (>= 1 b__51) (>= a__2 0) (>= a__34 0) (>= a__9 0) (>= a__23 0) (>= a__8 0) (>= a__12 0) (>= a__15 0) (>= a__10 0) (>= a__13 0) (>= b__52 0) (>= 1 b__52) (>= b__53 0) (>= 1 b__53) (>= b__54 0) (>= 1 b__54) (>= b__55 0) (>= 1 b__55) (>= a__26 0) (>= b__56 0) (>= 1 b__56) (>= a__35 0) (>= b__57 0) (>= 1 b__57) (>= a__39 0) (>= b__58 0) (>= 1 b__58) (>= a__43 0) (>= a__3 0) (>= a__18 0) (>= a__20 0) (>= a__16 0) (>= a__4 0) (>= a__5 0) (>= a__31 0) (>= a__27 0) (>= a__28 0) (>= a__29 0) (>= a__37 0) (>= a__24 0) (>= a__19 0) (>= a__21 0) (>= a__14 0) (>= a__22 0) (>= a__38 0) (>= a__33 0) (>= a__41 0) (>= a__40 0) (>= a__6 0) (>= a__11 0) (>= a__30 0) (>= a__32 0) (>= a__36 0) (>= a__42 0) (>= a__45 0) (>= a__44 0) (>= a__46 0) (>= a__47 0) (>= a__48 0) (>= a__49 0) (>= a__50 0) (>= a__1 0) (>= a__7 0) (>= a__17 0) (>= a__25 0)))
(check-sat)
;;(get-assignment)
;;(get-model)
(exit)
